NAME: CMT5_7
TYPE: CVRP
COMMENT: 1291.29 - Cluster Nr.7
DIMENSION: 14
CAPACITY: 200
EDGE_WEIGHT_TYPE: EUC_2D
NODE_COORD_TYPE: TWOD_COORDS
NODE_COORD_SECTION: 
5 38 46
6 27 43
8 41 37
10 35 35
9 35 51
11 32 39
14 35 40
1 42 41
7 37 47
4 41 46
3 31 32
13 33 34
12 30 48
2 33 44
DEPOT_SECTION: 
10
-1
DEMAND_SECTION: 
7 6
1 19
4 18
8 16
12 15
5 12
11 5
2 20
13 19
6 9
10 0
9 16
3 29
14 16
EOF
